100
128
62
51
37
59
42
22
22
37
33
59
5
8
12
16
57
22
9
64
25
53
14
45
17
24
43
47
29
10
59
35
52
16
9
9
52
5
13
17
2
22
43
11
23
37
41
56
43
11
63
36
51
1
11
35
58
40
19
10
32
54
46
43
26
2
16
20
28
28
1
4
37
20
58
35
53
64
27
61
10
24
48
45
21
41
45
2
58
20
4
33
40
62
36
3
31
39
58
51
18
10